4,1,9,2,5,2,6,2,9,4,2,3,7,2,1,1,8,3,1,4,3,3,10,6,2,5,3,5,6,5,6,6;2,1,5,3,4,2,3,1,8,4,6,4;10,2,2,2,8,1,9,5,8,2,5,4,7,5,1,5,1,6,4,3,5,6;9,3,10,5,2,4,9,6,5,5,8,5;5,1,10,3,1,2,7,4,4,4;10,1,9,1,6,1,7,1,10,4,6,3,7,3,1,3,3,2,3,4,4,5;
